20 20
99 46 1
78 8 1
46 9 1
99 41 1
80 25 1
88 3 1
83 44 1
79 42 1
7 15 1
71 9 1
66 90 1
66 4 1
68 18 1
97 26 1
79 48 1
96 27 1
74 32 1
97 6 1
89 18 1
100 12 1
100 100 
100 100 
100 100 
100 100 
100 100 
100 100 
100 100 
100 100 
100 100 
100 100 
100 100 
100 100 
100 100 
100 100 
100 100 
100 100 
100 100 
100 100 
100 100 
100 100 
